0 54 
1 55 
2 54 
3 55 
4 55 
5 53 
6 53 
7 53 
8 51 
9 49 
10 49 
11 47 
12 47 
13 44 
14 43 
15 41 
16 39 
17 37 
18 32 
19 30 
20 29 
21 27 
22 24 
23 22 
24 20 
25 16 
26 16 
27 15 
28 16 
29 15 
30 13 
31 13 
32 11 
33 10 
34 8 
35 6 
36 6 
37 5 
38 5 
39 5 
40 5 
41 0 
42 5 
43 4 
44 4 
45 2 
46 2 
47 2 
48 2 
49 1 
50 1 
51 0 
52 0 

